Stanen on SiC_C_term+P                  
   1.00000000000000     
     9.2820196151999994    0.0000000000000000    0.0000000000000000
    -4.6410108780000003    8.0384641672000008    0.0000000000000000
     0.0000000000000000    0.0000000000000000   40.0000000000000000
   C    Si   H    P    Sn
    27    27     9     3     8
Selective dynamics
Direct
  0.7763233787788337  0.5571146326308281  0.3893110968740530   T   T   T
  0.7807608271233804  0.8904406948673653  0.3893017200973503   T   T   T
  0.7763465327439789  0.2192391718766231  0.3893017200973503   T   T   T
  0.1141116790272463  0.5570489646226662  0.3892737598408900   T   T   T
  0.1096039525954282  0.8858883209727395  0.3892737598408900   T   T   T
  0.1095593051326347  0.2236534662560246  0.3893017200973503   T   T   T
  0.4428853663691612  0.5525420791480187  0.3893110968740530   T   T   T
  0.4429510343773231  0.8903960474045647  0.3892737598408900   T   T   T
  0.4474579198519777  0.2236766202211697  0.3893110968740530   T   T   T
  0.6555467526557379  0.6779020868180439  0.5164092447890241   T   T   T
  0.6555825478908162  0.9767864210085548  0.5167651160095090   T   T   T
  0.6890220001623248  0.3444532463442584  0.5164092447890241   T   T   T
  0.9885790810307995  0.6450577590964528  0.5162079362793222   T   T   T
  0.0232135789914452  0.0121294608822637  0.5167651160095090   T   T   T
  0.9878705391177434  0.3444174511091802  0.5167651160095090   T   T   T
  0.3549422399035507  0.6768546539343632  0.5162079362793222   T   T   T
  0.3231453450656403  0.0114209189692005  0.5162079362793222   T   T   T
  0.3220979121819454  0.3109779988376715  0.5164092447890241   T   T   T
  0.5555555549999980  0.4444444439999984  0.4550967974193654   T   T   T
  0.5555182638457481  0.7778354997903349  0.4476036536396819   T   T   T
  0.5557676611007238  0.1109073993897098  0.4551244361355131   T   T   T
  0.8889839019445773  0.4444817351542412  0.4476036536396819   T   T   T
  0.8890926006102902  0.7781935957109951  0.4551244361355131   T   T   T
  0.8888888890000004  0.1111111109999996  0.4552217200885238   T   T   T
  0.2218064042890049  0.4442323378992867  0.4551244361355131   T   T   T
  0.2222222219999992  0.7777777780000008  0.4550440223235626   T   T   T
  0.2221645002096651  0.1110160980554227  0.4476036536396819   T   T   T
  0.7749328436896903  0.5586363658663132  0.4369063891632763   T   T   T
  0.7836100801471559  0.8918913726752535  0.4368910186358477   T   T   T
  0.7749479575280702  0.2163899188528333  0.4368910186358477   T   T   T
  0.1168913536719316  0.5584410939073834  0.4368491474603999   T   T   T
  0.1082164072354672  0.8831086463280755  0.4368491474603999   T   T   T
  0.1081086273247465  0.2250520414719261  0.4368910186358477   T   T   T
  0.4413636331336903  0.5496298108233759  0.4369063891632763   T   T   T
  0.4415589050926201  0.8917835927645257  0.4368491474603999   T   T   T
  0.4503701881766276  0.2250671553103061  0.4369063891632763   T   T   T
  0.5555555549999980  0.4444444439999984  0.5051579695679251   T   T   T
  0.5555304073835998  0.7774599265208124  0.4918260899336744   T   T   T
  0.5561640788754403  0.1110413630682743  0.5052798202736213   T   T   T
  0.8885961851372244  0.4444695916164179  0.4918260899336744   T   T   T
  0.8889586369317115  0.7784560498071613  0.5052798202736213   T   T   T
  0.8888888890000004  0.1111111109999996  0.5053951409376793   T   T   T
  0.2215439501928387  0.4438359201245561  0.5052798202736213   T   T   T
  0.2222222219999992  0.7777777780000008  0.5052267895569713   T   T   T
  0.2225400734791947  0.1114038148627756  0.4918260899336744   T   T   T
  0.5555555549999980  0.4444444439999984  0.3736061393022467   T   T   T
  0.8889011559067796  0.4444649625324857  0.3744933124276315   T   T   T
  0.8888793287027994  0.7778131048594048  0.3735890031671119   T   T   T
  0.5555350364674965  0.7777695263742856  0.3744933124276315   T   T   T
  0.8888888890000004  0.1111111109999996  0.3735822327409863   T   T   T
  0.5556004421566314  0.1111206712972077  0.3735890031671119   T   T   T
  0.2221868951405952  0.4443995568433650  0.3735890031671119   T   T   T
  0.2222222219999992  0.7777777780000008  0.3735791262456658   T   T   T
  0.2222304736257072  0.1110988440932204  0.3744933124276315   T   T   T
  0.8888888890000004  0.7777777780000008  0.3363218518538886   F   F   F
  0.2222222219999992  0.7777777780000008  0.3363218518538886   F   F   F
  0.5555555549999980  0.7777777780000008  0.3366714385667464   F   F   F
  0.8888888890000004  0.1111111109999996  0.3363218518538886   F   F   F
  0.2222222219999992  0.1111111109999996  0.3366714385667464   F   F   F
  0.5555555549999980  0.1111111109999996  0.3363218518538886   F   F   F
  0.8888888890000004  0.4444444439999984  0.3366714385667464   F   F   F
  0.2222222219999992  0.4444444439999984  0.3363218518538886   F   F   F
  0.5555555549999980  0.4444444439999984  0.3363218518538886   F   F   F
  0.8859270590698856  0.4427431732444873  0.5479452586598015   T   T   T
  0.2234827801746064  0.1140729399301179  0.5479452586598015   T   T   T
  0.5572568257555162  0.7765172188253970  0.5479452586598015   T   T   T
  0.5285551375195752  0.9632456880655553  0.6345356956410058   T   T   T
  0.5555555549999980  0.4444444439999984  0.6254859113654447   T   T   T
  0.0367543119344447  0.8986427844540188  0.6345356956410058   T   T   T
  0.1013572155459883  0.4714448614804212  0.6345356956410058   T   T   T
  0.7555802362113511  0.2958232582409792  0.6150889347101369   T   T   T
  0.7041767407590243  0.7930903099703812  0.6150889347101369   T   T   T
  0.2069096890296152  0.2444197627886453  0.6150889347101369   T   T   T
  0.2222222219999992  0.7777777769999972  0.5980955443211755   T   T   T
 
  0.00000000E+00  0.00000000E+00  0.00000000E+00
  0.00000000E+00  0.00000000E+00  0.00000000E+00
  0.00000000E+00  0.00000000E+00  0.00000000E+00
  0.00000000E+00  0.00000000E+00  0.00000000E+00
  0.00000000E+00  0.00000000E+00  0.00000000E+00
  0.00000000E+00  0.00000000E+00  0.00000000E+00
  0.00000000E+00  0.00000000E+00  0.00000000E+00
  0.00000000E+00  0.00000000E+00  0.00000000E+00
  0.00000000E+00  0.00000000E+00  0.00000000E+00
  0.00000000E+00  0.00000000E+00  0.00000000E+00
  0.00000000E+00  0.00000000E+00  0.00000000E+00
  0.00000000E+00  0.00000000E+00  0.00000000E+00
  0.00000000E+00  0.00000000E+00  0.00000000E+00
  0.00000000E+00  0.00000000E+00  0.00000000E+00
  0.00000000E+00  0.00000000E+00  0.00000000E+00
  0.00000000E+00  0.00000000E+00  0.00000000E+00
  0.00000000E+00  0.00000000E+00  0.00000000E+00
  0.00000000E+00  0.00000000E+00  0.00000000E+00
  0.00000000E+00  0.00000000E+00  0.00000000E+00
  0.00000000E+00  0.00000000E+00  0.00000000E+00
  0.00000000E+00  0.00000000E+00  0.00000000E+00
  0.00000000E+00  0.00000000E+00  0.00000000E+00
  0.00000000E+00  0.00000000E+00  0.00000000E+00
  0.00000000E+00  0.00000000E+00  0.00000000E+00
  0.00000000E+00  0.00000000E+00  0.00000000E+00
  0.00000000E+00  0.00000000E+00  0.00000000E+00
  0.00000000E+00  0.00000000E+00  0.00000000E+00
  0.00000000E+00  0.00000000E+00  0.00000000E+00
  0.00000000E+00  0.00000000E+00  0.00000000E+00
  0.00000000E+00  0.00000000E+00  0.00000000E+00
  0.00000000E+00  0.00000000E+00  0.00000000E+00
  0.00000000E+00  0.00000000E+00  0.00000000E+00
  0.00000000E+00  0.00000000E+00  0.00000000E+00
  0.00000000E+00  0.00000000E+00  0.00000000E+00
  0.00000000E+00  0.00000000E+00  0.00000000E+00
  0.00000000E+00  0.00000000E+00  0.00000000E+00
  0.00000000E+00  0.00000000E+00  0.00000000E+00
  0.00000000E+00  0.00000000E+00  0.00000000E+00
  0.00000000E+00  0.00000000E+00  0.00000000E+00
  0.00000000E+00  0.00000000E+00  0.00000000E+00
  0.00000000E+00  0.00000000E+00  0.00000000E+00
  0.00000000E+00  0.00000000E+00  0.00000000E+00
  0.00000000E+00  0.00000000E+00  0.00000000E+00
  0.00000000E+00  0.00000000E+00  0.00000000E+00
  0.00000000E+00  0.00000000E+00  0.00000000E+00
  0.00000000E+00  0.00000000E+00  0.00000000E+00
  0.00000000E+00  0.00000000E+00  0.00000000E+00
  0.00000000E+00  0.00000000E+00  0.00000000E+00
  0.00000000E+00  0.00000000E+00  0.00000000E+00
  0.00000000E+00  0.00000000E+00  0.00000000E+00
  0.00000000E+00  0.00000000E+00  0.00000000E+00
  0.00000000E+00  0.00000000E+00  0.00000000E+00
  0.00000000E+00  0.00000000E+00  0.00000000E+00
  0.00000000E+00  0.00000000E+00  0.00000000E+00
  0.00000000E+00  0.00000000E+00  0.00000000E+00
  0.00000000E+00  0.00000000E+00  0.00000000E+00
  0.00000000E+00  0.00000000E+00  0.00000000E+00
  0.00000000E+00  0.00000000E+00  0.00000000E+00
  0.00000000E+00  0.00000000E+00  0.00000000E+00
  0.00000000E+00  0.00000000E+00  0.00000000E+00
  0.00000000E+00  0.00000000E+00  0.00000000E+00
  0.00000000E+00  0.00000000E+00  0.00000000E+00
  0.00000000E+00  0.00000000E+00  0.00000000E+00
  0.00000000E+00  0.00000000E+00  0.00000000E+00
  0.00000000E+00  0.00000000E+00  0.00000000E+00
  0.00000000E+00  0.00000000E+00  0.00000000E+00
  0.00000000E+00  0.00000000E+00  0.00000000E+00
  0.00000000E+00  0.00000000E+00  0.00000000E+00
  0.00000000E+00  0.00000000E+00  0.00000000E+00
  0.00000000E+00  0.00000000E+00  0.00000000E+00
  0.00000000E+00  0.00000000E+00  0.00000000E+00
  0.00000000E+00  0.00000000E+00  0.00000000E+00
  0.00000000E+00  0.00000000E+00  0.00000000E+00
  0.00000000E+00  0.00000000E+00  0.00000000E+00
