SrRuO3                                  
   1.00000000000000     
     5.5030999184000002    0.0000000000000000    0.0000000000000000
     0.0000000000000000    5.4828000068999998    0.0000000000000000
     0.0000000000000000    0.0000000000000000    7.7546000481000004
   Ru   Sr   O 
     4     4    12
Direct
  0.5000000000000000  0.0000000000000000  0.0000000000000000
  0.0000000000000000  0.5000000000000000  0.0000000000000000
  0.5000000000000000  0.0000000000000000  0.5000000000000000
  0.0000000000000000  0.5000000000000000  0.5000000000000000
  0.9950000050000014  0.0296000000000021  0.2500000000000000
  0.0050000000000026  0.9703999760000031  0.7500000000000000
  0.4950000050000014  0.4704000059999984  0.7500000000000000
  0.5049999949999986  0.5296000239999969  0.2500000000000000
  0.7164999840000021  0.2833999989999967  0.0335999990000033
  0.2835000159999979  0.7166000010000033  0.9664000269999988
  0.2164999840000021  0.2166000010000033  0.9664000269999988
  0.7835000159999979  0.7833999989999967  0.0335999990000033
  0.2835000159999979  0.7166000010000033  0.5335999730000012
  0.7164999840000021  0.2833999989999967  0.4663999970000035
  0.7835000159999979  0.7833999989999967  0.4663999970000035
  0.2164999840000021  0.2166000010000033  0.5335999730000012
  0.0647000000000020  0.4941000040000034  0.2500000000000000
  0.9352999930000010  0.5059000250000025  0.7500000000000000
  0.5647000069999990  0.0058999959999966  0.7500000000000000
  0.4352999930000010  0.9940999749999975  0.2500000000000000
 
  0.00000000E+00  0.00000000E+00  0.00000000E+00
  0.00000000E+00  0.00000000E+00  0.00000000E+00
  0.00000000E+00  0.00000000E+00  0.00000000E+00
  0.00000000E+00  0.00000000E+00  0.00000000E+00
  0.00000000E+00  0.00000000E+00  0.00000000E+00
  0.00000000E+00  0.00000000E+00  0.00000000E+00
  0.00000000E+00  0.00000000E+00  0.00000000E+00
  0.00000000E+00  0.00000000E+00  0.00000000E+00
  0.00000000E+00  0.00000000E+00  0.00000000E+00
  0.00000000E+00  0.00000000E+00  0.00000000E+00
  0.00000000E+00  0.00000000E+00  0.00000000E+00
  0.00000000E+00  0.00000000E+00  0.00000000E+00
  0.00000000E+00  0.00000000E+00  0.00000000E+00
  0.00000000E+00  0.00000000E+00  0.00000000E+00
  0.00000000E+00  0.00000000E+00  0.00000000E+00
  0.00000000E+00  0.00000000E+00  0.00000000E+00
  0.00000000E+00  0.00000000E+00  0.00000000E+00
  0.00000000E+00  0.00000000E+00  0.00000000E+00
  0.00000000E+00  0.00000000E+00  0.00000000E+00
  0.00000000E+00  0.00000000E+00  0.00000000E+00
